
Gurobi 9.0.3 (linux64, gurobi_cl) logging started Sat Oct  3 15:04:20 2020

Using license file /home/gustavo/gurobi.lic
Set parameter LogFile to value gurobi.log

Gurobi 9.0.3 (linux64, Python) logging started Sat Oct  3 15:14:48 2020

Using license file /home/gustavo/gurobi.lic
Set parameter LogFile to value gurobi.log

Gurobi 9.0.3 (linux64, Python) logging started Sat Oct  3 15:15:23 2020

Using license file /home/gustavo/gurobi.lic
Set parameter LogFile to value gurobi.log

Gurobi 9.0.3 (linux64, Python) logging started Sat Oct  3 15:16:50 2020

Using license file /home/gustavo/gurobi.lic
Set parameter LogFile to value gurobi.log
Academic license - for non-commercial use only

Gurobi 9.1.1 (linux64, gurobi_cl) logging started Thu Dec 24 16:29:59 2020

Academic license - for non-commercial use only - expires 2021-02-22
Using license file /home/gustavo/gurobi.lic
Set parameter LogFile to value gurobi.log

Gurobi 9.1.1 (linux64, Python) logging started Wed Apr 21 18:13:03 2021


Gurobi 9.1.1 (linux64, Python) logging started Wed Apr 21 18:14:27 2021

Academic license - for non-commercial use only - expires 2021-06-20
Using license file /home/gustavo/gurobi.lic
Set parameter LogFile to value gurobi.log
